c read Graph
c width = 139
c time = 99 ms
c width = 11
c time = 182 ms
c width = 10
c time = 252 ms
c width = 9
c time = 340 ms
c width = 9
c time = 4941 ms
s td 139 10 152
b 1 1 2 20
b 2 2 3 20 21
b 3 17 18 37 38
b 4 3 20 21 39
b 5 17 37 38 57
b 6 96 115 116 135
b 7 114 132 133 151
b 8 96 116 135 136
b 9 114 132 150 151
b 10 3 4 5 23
b 11 3 5 22 23 40 58
b 12 5 22 23 40 42 58 60
b 13 5 23 40 42 58 60 78
b 14 5 23 42 58 60 78 96
b 15 5 23 25 42 43 60 78 96
b 16 5 25 42 43 60 61 78 96
b 17 5 25 43 60 61 78 79 96
b 18 5 25 43 61 78 79 96 99 119 137
b 19 78 79 96 99 117 119 137
b 20 99 117 118 119 137
b 21 78 79 96 97 99 117 137
b 22 96 97 117 136 137
b 23 96 97 116 117 136
b 24 79 97 98 99 117
b 25 5 25 43 61 79 81 99 119 137
b 26 5 25 43 61 81 99 101 119 137
b 27 5 25 43 61 63 81 101 119 137
b 28 5 25 43 45 63 81 101 119 137
b 29 5 25 45 63 81 83 101 119 137
b 30 5 25 45 63 65 83 101 119 137
b 31 45 63 64 65 83
b 32 5 25 45 65 83 101 119 121 137 141
b 33 5 25 45 65 83 101 121 137 141
b 34 5 25 45 65 83 101 103 121 141
b 35 83 101 102 103 121
b 36 5 25 45 65 83 103 121 123 141
b 37 5 25 45 65 83 85 103 123 141
b 38 65 83 84 85 103
b 39 5 25 45 65 85 103 105 123 141
b 40 5 9 25 27 45 65 85 105 123 141
b 41 9 27 45 47 65 85 105 123 141
b 42 9 27 29 47 65 85 105 123 141
b 43 9 29 47 65 67 85 105 123 141
b 44 47 65 66 67 85
b 45 9 29 47 67 85 87 105 123 141
b 46 9 29 47 49 67 87 105 123 141
b 47 9 29 49 67 87 105 123 125 141 145
b 48 9 29 49 67 87 105 125 141 145
b 49 9 29 49 67 87 105 107 125 145
b 50 87 105 106 107 125
b 51 9 29 49 67 87 107 125 127 145
b 52 9 29 49 67 69 87 107 127 145
b 53 49 67 68 69 87
b 54 9 29 49 69 87 89 107 127 145
b 55 9 13 29 31 49 69 89 107 127 145
b 56 13 31 49 51 69 89 107 127 145
b 57 31 49 51 69 89 107 127 145
b 58 31 49 50 51 69
b 59 13 31 33 51 69 89 107 127 145
b 60 13 33 51 69 89 107 109 127 145
b 61 89 107 108 109 127
b 62 13 33 51 69 71 89 109 127 145
b 63 51 69 70 71 89
b 64 13 33 51 71 89 91 109 127 145
b 65 71 89 90 91 109
b 66 13 31 32 33 51
b 67 9 11 13 29 31 49
b 68 9 10 11 29
b 69 11 12 13 31
b 70 11 29 30 31 49
b 71 69 87 88 89 107
b 72 107 125 126 127 145
b 73 105 123 125 141 143 145
b 74 123 141 142 143
b 75 125 143 144 145
b 76 105 123 124 125 143
b 77 29 47 48 49 67
b 78 67 85 86 87 105
b 79 9 27 28 29 47
b 80 27 45 46 47 65
b 81 5 7 9 25 27 45
b 82 5 6 7 25
b 83 7 8 9 27
b 84 7 25 26 27 45
b 85 85 103 104 105 123
b 86 103 121 122 123 141
b 87 101 119 121 137 139 141
b 88 121 139 140 141
b 89 101 119 120 121 139
b 90 119 137 138 139
b 91 63 81 82 83 101
b 92 25 43 44 45 63
b 93 43 61 62 63 81
b 94 81 99 100 101 119
b 95 61 79 80 81 99
b 96 5 23 24 25 43
b 97 58 77 78 96
b 98 40 58 59 60 78
b 99 22 40 41 42 60
b 100 3 22 39 40 58
b 101 3 21 22 39 40
b 102 53 71 72 73 91
b 103 13 33 51 53 71 91 109 127 145
b 104 13 33 53 71 73 91 109 127 145
b 105 13 33 53 73 91 109 127 145 147
b 106 13 33 53 73 91 109 127 129 147
b 107 13 33 53 73 76 93 94 111 129 147
b 108 13 33 53 73 91 93 111 129 147
b 109 13 33 53 73 91 109 111 129 147
b 110 33 51 52 53 71
b 111 13 17 33 36 53 54 73 76 93 94
b 112 13 17 33 35 36 53 54
b 113 13 15 17 33 35 53
b 114 15 33 34 35 53
b 115 13 14 15 33
b 116 15 16 17 35
b 117 17 36 54 73 74 76 93 94
b 118 17 36 54 56 74 76 94
b 119 17 36 56 57 76
b 120 17 36 37 56 57
b 121 36 54 55 56 74
b 122 56 74 75 76 94
b 123 76 93 94 111 129 147 149
b 124 76 93 94 111 129 131 149
b 125 111 129 130 131 149
b 126 76 93 94 111 113 131 149
b 127 93 111 112 113 131
b 128 76 94 113 114 131 149
b 129 76 94 95 114
b 130 113 114 131 149 150
b 131 113 114 131 132 150
b 132 129 147 148 149
b 133 91 109 110 111 129
b 134 73 91 92 93 111
b 135 109 127 128 129 147
b 136 127 145 146 147
b 137 133 151 152
b 138 115 134 135
b 139 18 19 38
1 2
2 4
3 139
3 5
4 101
5 120
6 138
6 8
7 137
7 9
8 23
9 131
10 11
11 100
11 12
12 99
12 13
13 98
13 14
14 97
14 15
15 96
15 16
16 17
17 18
18 25
18 19
19 20
19 21
21 22
21 24
22 23
25 95
25 26
26 94
26 27
27 93
27 28
28 29
28 92
29 91
29 30
30 32
30 31
32 87
32 33
33 34
34 35
34 36
36 86
36 37
37 39
37 38
39 85
39 40
40 81
40 41
41 80
41 42
42 43
42 79
43 45
43 44
45 78
45 46
46 77
46 47
47 73
47 48
48 49
49 51
49 50
51 72
51 52
52 54
52 53
54 71
54 55
55 67
55 56
56 59
56 57
57 58
59 60
59 66
60 61
60 62
62 64
62 63
64 103
64 65
67 68
67 69
67 70
73 74
73 75
73 76
81 82
81 83
81 84
87 90
87 88
87 89
100 101
102 104
103 110
103 104
104 105
105 136
105 106
106 135
106 109
107 111
107 123
107 108
108 134
108 109
109 133
111 112
111 117
112 113
113 115
113 116
113 114
117 118
118 119
118 122
118 121
119 120
123 132
123 124
124 125
124 126
126 127
126 128
128 129
128 130
130 131
